NAME : rnd90_20.tsp
TYPE : TSP
DIMENSION : 20
EDGE_WEIGHT_TYPE : EUC_2D
NODE_COORD_SECTION
0 461 595
1 42 772
2 173 764
3 927 690
4 746 582
5 876 992
6 446 929
7 498 675
8 619 900
9 621 682
10 121 25
11 466 375
12 771 179
13 643 44
14 264 242
15 940 332
16 670 429
17 868 66
18 86 636
19 903 1
